computational_data/real_data/lp/iris_trial_002_margin.lp
Maximize
 obj: c_0 +c_1 +c_2 +c_3 +c_4 +c_5 +c_6 +c_7 +c_8 +c_9 +c_10 +c_11 +c_12 +c_13 +c_14 +c_15
  +c_16 +c_17 +c_18 +c_19 +c_20 +c_21 +c_22 +c_23 +c_24 +c_25 +c_26 +c_27 +c_28 +c_29
  +0.000900 r_0 +0.000900 r_1 +0.000933 r_2 +0.000900 r_3 +0.000933 r_4 +0.000933 r_5
  +0.000933 r_6 +0.000900 r_7 +0.000933 r_8 +0.000933 r_9 +0.000933 r_10 +0.000933 r_11
  +0.000900 r_12 +0.000933 r_13 +0.000900 r_14 +0.000933 r_15 +0.000933 r_16 +0.000900 b_0
  +0.000900 b_1 +0.000933 b_2 +0.000900 b_3 +0.000933 b_4 +0.000933 b_5 +0.000933 b_6
  +0.000900 b_7 +0.000933 b_8 +0.000933 b_9 +0.000933 b_10 +0.000933 b_11 +0.000900 b_12
  +0.000933 b_13 +0.000900 b_14 +0.000933 b_15 +0.000933 b_16
Subject To
 red_nonempty: r_0 +r_1 +r_2 +r_3 +r_4 +r_5 +r_6 +r_7 +r_8 +r_9 +r_10 +r_11 +r_12 +r_13
  +r_14 +r_15 +r_16 >= 1
 blue_nonempty: b_0 +b_1 +b_2 +b_3 +b_4 +b_5 +b_6 +b_7 +b_8 +b_9 +b_10 +b_11 +b_12 +b_13
  +b_14 +b_15 +b_16 >= 1
 size_ge: r_0 +r_1 +r_2 +r_3 +r_4 +r_5 +r_6 +r_7 +r_8 +r_9 +r_10 +r_11 +r_12 +r_13 +r_14
  +r_15 +r_16 +b_0 +b_1 +b_2 +b_3 +b_4 +b_5 +b_6 +b_7 +b_8 +b_9 +b_10 +b_11 +b_12 +b_13
  +b_14 +b_15 +b_16 >= 9
 size_le: r_0 +r_1 +r_2 +r_3 +r_4 +r_5 +r_6 +r_7 +r_8 +r_9 +r_10 +r_11 +r_12 +r_13 +r_14
  +r_15 +r_16 +b_0 +b_1 +b_2 +b_3 +b_4 +b_5 +b_6 +b_7 +b_8 +b_9 +b_10 +b_11 +b_12 +b_13
  +b_14 +b_15 +b_16 <= 9
 disjoint_0: r_0 + b_0 <= 1
 disjoint_1: r_1 + b_1 <= 1
 disjoint_2: r_2 + b_2 <= 1
 disjoint_3: r_3 + b_3 <= 1
 disjoint_4: r_4 + b_4 <= 1
 disjoint_5: r_5 + b_5 <= 1
 disjoint_6: r_6 + b_6 <= 1
 disjoint_7: r_7 + b_7 <= 1
 disjoint_8: r_8 + b_8 <= 1
 disjoint_9: r_9 + b_9 <= 1
 disjoint_10: r_10 + b_10 <= 1
 disjoint_11: r_11 + b_11 <= 1
 disjoint_12: r_12 + b_12 <= 1
 disjoint_13: r_13 + b_13 <= 1
 disjoint_14: r_14 + b_14 <= 1
 disjoint_15: r_15 + b_15 <= 1
 disjoint_16: r_16 + b_16 <= 1
 red_ind_0: r_4 + r_5 <= 1
 blue_ind_0: b_4 + b_5 <= 1
 red_ind_1: r_4 + r_6 <= 1
 blue_ind_1: b_4 + b_6 <= 1
 red_ind_2: r_4 + r_8 <= 1
 blue_ind_2: b_4 + b_8 <= 1
 red_ind_3: r_4 + r_9 <= 1
 blue_ind_3: b_4 + b_9 <= 1
 red_ind_4: r_4 + r_10 <= 1
 blue_ind_4: b_4 + b_10 <= 1
 red_ind_5: r_4 + r_11 <= 1
 blue_ind_5: b_4 + b_11 <= 1
 red_ind_6: r_4 + r_13 <= 1
 blue_ind_6: b_4 + b_13 <= 1
 red_ind_7: r_4 + r_15 <= 1
 blue_ind_7: b_4 + b_15 <= 1
 red_ind_8: r_4 + r_16 <= 1
 blue_ind_8: b_4 + b_16 <= 1
 red_ind_9: r_5 + r_6 <= 1
 blue_ind_9: b_5 + b_6 <= 1
 red_ind_10: r_5 + r_8 <= 1
 blue_ind_10: b_5 + b_8 <= 1
 red_ind_11: r_5 + r_9 <= 1
 blue_ind_11: b_5 + b_9 <= 1
 red_ind_12: r_5 + r_10 <= 1
 blue_ind_12: b_5 + b_10 <= 1
 red_ind_13: r_5 + r_11 <= 1
 blue_ind_13: b_5 + b_11 <= 1
 red_ind_14: r_5 + r_13 <= 1
 blue_ind_14: b_5 + b_13 <= 1
 red_ind_15: r_5 + r_15 <= 1
 blue_ind_15: b_5 + b_15 <= 1
 red_ind_16: r_5 + r_16 <= 1
 blue_ind_16: b_5 + b_16 <= 1
 red_ind_17: r_6 + r_8 <= 1
 blue_ind_17: b_6 + b_8 <= 1
 red_ind_18: r_6 + r_9 <= 1
 blue_ind_18: b_6 + b_9 <= 1
 red_ind_19: r_6 + r_10 <= 1
 blue_ind_19: b_6 + b_10 <= 1
 red_ind_20: r_6 + r_11 <= 1
 blue_ind_20: b_6 + b_11 <= 1
 red_ind_21: r_6 + r_13 <= 1
 blue_ind_21: b_6 + b_13 <= 1
 red_ind_22: r_6 + r_15 <= 1
 blue_ind_22: b_6 + b_15 <= 1
 red_ind_23: r_6 + r_16 <= 1
 blue_ind_23: b_6 + b_16 <= 1
 red_ind_24: r_8 + r_9 <= 1
 blue_ind_24: b_8 + b_9 <= 1
 red_ind_25: r_8 + r_10 <= 1
 blue_ind_25: b_8 + b_10 <= 1
 red_ind_26: r_8 + r_11 <= 1
 blue_ind_26: b_8 + b_11 <= 1
 red_ind_27: r_8 + r_13 <= 1
 blue_ind_27: b_8 + b_13 <= 1
 red_ind_28: r_8 + r_15 <= 1
 blue_ind_28: b_8 + b_15 <= 1
 red_ind_29: r_8 + r_16 <= 1
 blue_ind_29: b_8 + b_16 <= 1
 red_ind_30: r_9 + r_10 <= 1
 blue_ind_30: b_9 + b_10 <= 1
 red_ind_31: r_9 + r_11 <= 1
 blue_ind_31: b_9 + b_11 <= 1
 red_ind_32: r_9 + r_13 <= 1
 blue_ind_32: b_9 + b_13 <= 1
 red_ind_33: r_9 + r_15 <= 1
 blue_ind_33: b_9 + b_15 <= 1
 red_ind_34: r_9 + r_16 <= 1
 blue_ind_34: b_9 + b_16 <= 1
 red_ind_35: r_10 + r_11 <= 1
 blue_ind_35: b_10 + b_11 <= 1
 red_ind_36: r_10 + r_13 <= 1
 blue_ind_36: b_10 + b_13 <= 1
 red_ind_37: r_10 + r_15 <= 1
 blue_ind_37: b_10 + b_15 <= 1
 red_ind_38: r_10 + r_16 <= 1
 blue_ind_38: b_10 + b_16 <= 1
 red_ind_39: r_11 + r_13 <= 1
 blue_ind_39: b_11 + b_13 <= 1
 red_ind_40: r_11 + r_15 <= 1
 blue_ind_40: b_11 + b_15 <= 1
 red_ind_41: r_11 + r_16 <= 1
 blue_ind_41: b_11 + b_16 <= 1
 red_ind_42: r_13 + r_15 <= 1
 blue_ind_42: b_13 + b_15 <= 1
 red_ind_43: r_13 + r_16 <= 1
 blue_ind_43: b_13 + b_16 <= 1
 red_ind_44: r_15 + r_16 <= 1
 blue_ind_44: b_15 + b_16 <= 1
 red_dom_0: r_0 +b_0 >= 1
 blue_dom_0: r_0 +b_0 >= 1
 red_dom_1: r_1 +b_1 >= 1
 blue_dom_1: r_1 +b_1 >= 1
 red_dom_2: r_2 +b_2 >= 1
 blue_dom_2: r_2 +b_2 >= 1
 red_dom_3: r_3 +b_3 >= 1
 blue_dom_3: r_3 +b_3 >= 1
 red_dom_4: r_5 +r_6 +r_8 +r_9 +r_10 +r_11 +r_13 +r_15 +r_16 +r_4 +b_4 >= 1
 blue_dom_4: b_5 +b_6 +b_8 +b_9 +b_10 +b_11 +b_13 +b_15 +b_16 +r_4 +b_4 >= 1
 red_dom_5: r_4 +r_6 +r_8 +r_9 +r_10 +r_11 +r_13 +r_15 +r_16 +r_5 +b_5 >= 1
 blue_dom_5: b_4 +b_6 +b_8 +b_9 +b_10 +b_11 +b_13 +b_15 +b_16 +r_5 +b_5 >= 1
 red_dom_6: r_4 +r_5 +r_8 +r_9 +r_10 +r_11 +r_13 +r_15 +r_16 +r_6 +b_6 >= 1
 blue_dom_6: b_4 +b_5 +b_8 +b_9 +b_10 +b_11 +b_13 +b_15 +b_16 +r_6 +b_6 >= 1
 red_dom_7: r_7 +b_7 >= 1
 blue_dom_7: r_7 +b_7 >= 1
 red_dom_8: r_4 +r_5 +r_6 +r_9 +r_10 +r_11 +r_13 +r_15 +r_16 +r_8 +b_8 >= 1
 blue_dom_8: b_4 +b_5 +b_6 +b_9 +b_10 +b_11 +b_13 +b_15 +b_16 +r_8 +b_8 >= 1
 red_dom_9: r_4 +r_5 +r_6 +r_8 +r_10 +r_11 +r_13 +r_15 +r_16 +r_9 +b_9 >= 1
 blue_dom_9: b_4 +b_5 +b_6 +b_8 +b_10 +b_11 +b_13 +b_15 +b_16 +r_9 +b_9 >= 1
 red_dom_10: r_4 +r_5 +r_6 +r_8 +r_9 +r_11 +r_13 +r_15 +r_16 +r_10 +b_10 >= 1
 blue_dom_10: b_4 +b_5 +b_6 +b_8 +b_9 +b_11 +b_13 +b_15 +b_16 +r_10 +b_10 >= 1
 red_dom_11: r_4 +r_5 +r_6 +r_8 +r_9 +r_10 +r_13 +r_15 +r_16 +r_11 +b_11 >= 1
 blue_dom_11: b_4 +b_5 +b_6 +b_8 +b_9 +b_10 +b_13 +b_15 +b_16 +r_11 +b_11 >= 1
 red_dom_12: r_12 +b_12 >= 1
 blue_dom_12: r_12 +b_12 >= 1
 red_dom_13: r_4 +r_5 +r_6 +r_8 +r_9 +r_10 +r_11 +r_15 +r_16 +r_13 +b_13 >= 1
 blue_dom_13: b_4 +b_5 +b_6 +b_8 +b_9 +b_10 +b_11 +b_15 +b_16 +r_13 +b_13 >= 1
 red_dom_14: r_14 +b_14 >= 1
 blue_dom_14: r_14 +b_14 >= 1
 red_dom_15: r_4 +r_5 +r_6 +r_8 +r_9 +r_10 +r_11 +r_13 +r_16 +r_15 +b_15 >= 1
 blue_dom_15: b_4 +b_5 +b_6 +b_8 +b_9 +b_10 +b_11 +b_13 +b_16 +r_15 +b_15 >= 1
 red_dom_16: r_4 +r_5 +r_6 +r_8 +r_9 +r_10 +r_11 +r_13 +r_15 +r_16 +b_16 >= 1
 blue_dom_16: b_4 +b_5 +b_6 +b_8 +b_9 +b_10 +b_11 +b_13 +b_15 +r_16 +b_16 >= 1
 margin_0_0: 10.000000 c_0 - r_0 - b_0 - r_1 - b_1 - r_2 - b_2 - r_3 - b_3 - r_4 - b_4
  - r_5 - b_5 - r_6 - b_6 - r_7 - b_7 - r_8 - b_8 - r_9 - b_9 - r_10 - b_10 - r_11 - b_11
  - r_12 - b_12 - r_13 - b_13 - r_14 - b_14 - r_15 - b_15 - r_16 - b_16 <= 9
 margin_0_1: 10.000000 c_0 - r_0 - b_0 - r_1 - b_1 - r_2 - b_2 - r_3 - b_3 - r_4 - b_4
  - r_5 - b_5 - r_6 - b_6 - r_7 - b_7 - r_8 - b_8 - r_9 - b_9 - r_10 - b_10 - r_11 - b_11
  - r_12 - b_12 - r_13 - b_13 - r_14 - b_14 - r_15 - b_15 - r_16 - b_16 <= 9
 margin_1_0: 10.000000 c_1 - r_0 - b_0 - r_1 - b_1 - r_2 - b_2 - r_3 - b_3 - r_4 - b_4
  - r_5 - b_5 - r_6 - b_6 - r_7 - b_7 - r_8 - b_8 - r_9 - b_9 - r_10 - b_10 - r_11 - b_11
  - r_12 - b_12 - r_13 - b_13 - r_14 - b_14 - r_15 - b_15 - r_16 - b_16 <= 9
 margin_1_1: 10.000000 c_1 - r_0 - b_0 - r_1 - b_1 - r_2 - b_2 - r_3 - b_3 - r_4 - b_4
  - r_5 - b_5 - r_6 - b_6 - r_7 - b_7 - r_8 - b_8 - r_9 - b_9 - r_10 - b_10 - r_11 - b_11
  - r_12 - b_12 - r_13 - b_13 - r_14 - b_14 - r_15 - b_15 - r_16 - b_16 <= 9
 margin_2_0: 10.000000 c_2 - r_0 - b_0 - r_1 - b_1 - r_2 - b_2 - r_3 - b_3 - r_4 - b_4
  - r_5 - b_5 - r_6 - b_6 - r_7 - b_7 - r_8 - b_8 - r_9 - b_9 - r_10 - b_10 - r_11 - b_11
  - r_12 - b_12 - r_13 - b_13 - r_14 - b_14 - r_15 - b_15 - r_16 - b_16 <= 9
 margin_2_1: 10.000000 c_2 - r_0 - b_0 - r_1 - b_1 - r_2 - b_2 - r_3 - b_3 - r_4 - b_4
  - r_5 - b_5 - r_6 - b_6 - r_7 - b_7 - r_8 - b_8 - r_9 - b_9 - r_10 - b_10 - r_11 - b_11
  - r_12 - b_12 - r_13 - b_13 - r_14 - b_14 - r_15 - b_15 - r_16 - b_16 <= 9
 margin_3_0: 10.000000 c_3 - r_0 - b_0 - r_1 - b_1 - r_2 - b_2 - r_3 - b_3 - r_4 - b_4
  - r_5 - b_5 - r_6 - b_6 - r_7 - b_7 - r_8 - b_8 - r_9 - b_9 - r_10 - b_10 - r_11 - b_11
  - r_12 - b_12 - r_13 - b_13 - r_14 - b_14 - r_15 - b_15 - r_16 - b_16 <= 9
 margin_3_1: 10.000000 c_3 - r_0 - b_0 - r_1 - b_1 - r_2 - b_2 - r_3 - b_3 - r_4 - b_4
  - r_5 - b_5 - r_6 - b_6 - r_7 - b_7 - r_8 - b_8 - r_9 - b_9 - r_10 - b_10 - r_11 - b_11
  - r_12 - b_12 - r_13 - b_13 - r_14 - b_14 - r_15 - b_15 - r_16 - b_16 <= 9
 margin_4_0: 10.000000 c_4 - r_0 - b_0 - r_1 - b_1 - r_2 - b_2 - r_3 - b_3 - r_4 - b_4
  - r_5 - b_5 - r_6 - b_6 - r_7 - b_7 - r_8 - b_8 - r_9 - b_9 - r_10 - b_10 - r_11 - b_11
  - r_12 - b_12 - r_13 - b_13 - r_14 - b_14 - r_15 - b_15 - r_16 - b_16 <= 9
 margin_4_1: 10.000000 c_4 - r_0 - b_0 - r_1 - b_1 - r_2 - b_2 - r_3 - b_3 - r_4 - b_4
  - r_5 - b_5 - r_6 - b_6 - r_7 - b_7 - r_8 - b_8 - r_9 - b_9 - r_10 - b_10 - r_11 - b_11
  - r_12 - b_12 - r_13 - b_13 - r_14 - b_14 - r_15 - b_15 - r_16 - b_16 <= 9
 margin_5_0: 10.000000 c_5 - r_0 - b_0 - r_1 - b_1 - r_2 - b_2 - r_3 - b_3 - r_4 - b_4
  - r_5 - b_5 - r_6 - b_6 - r_7 - b_7 - r_8 - b_8 - r_9 - b_9 - r_10 - b_10 - r_11 - b_11
  - r_12 - b_12 - r_13 - b_13 - r_14 - b_14 - r_15 - b_15 - r_16 - b_16 <= 9
 margin_5_1: 10.000000 c_5 - r_0 - b_0 - r_1 - b_1 - r_2 - b_2 - r_3 - b_3 - r_4 - b_4
  - r_5 - b_5 - r_6 - b_6 - r_7 - b_7 - r_8 - b_8 - r_9 - b_9 - r_10 - b_10 - r_11 - b_11
  - r_12 - b_12 - r_13 - b_13 - r_14 - b_14 - r_15 - b_15 - r_16 - b_16 <= 9
 margin_6_0: 10.000000 c_6 - r_0 - b_0 - r_1 - b_1 - r_2 - b_2 - r_3 - b_3 - r_4 - b_4
  - r_5 - b_5 - r_6 - b_6 - r_7 - b_7 - r_8 - b_8 - r_9 - b_9 - r_10 - b_10 - r_11 - b_11
  - r_12 - b_12 - r_13 - b_13 - r_14 - b_14 - r_15 - b_15 - r_16 - b_16 <= 9
 margin_6_1: 10.000000 c_6 - r_0 - b_0 - r_1 - b_1 - r_2 - b_2 - r_3 - b_3 - r_4 - b_4
  - r_5 - b_5 - r_6 - b_6 - r_7 - b_7 - r_8 - b_8 - r_9 - b_9 - r_10 - b_10 - r_11 - b_11
  - r_12 - b_12 - r_13 - b_13 - r_14 - b_14 - r_15 - b_15 - r_16 - b_16 <= 9
 margin_7_0: 10.000000 c_7 - r_0 - b_0 - r_1 - b_1 - r_2 - b_2 - r_3 - b_3 - r_4 - b_4
  - r_5 - b_5 - r_6 - b_6 - r_7 - b_7 - r_8 - b_8 - r_9 - b_9 - r_10 - b_10 - r_11 - b_11
  - r_12 - b_12 - r_13 - b_13 - r_14 - b_14 - r_15 - b_15 - r_16 - b_16 <= 9
 margin_7_1: 10.000000 c_7 - r_0 - b_0 - r_1 - b_1 - r_2 - b_2 - r_3 - b_3 - r_4 - b_4
  - r_5 - b_5 - r_6 - b_6 - r_7 - b_7 - r_8 - b_8 - r_9 - b_9 - r_10 - b_10 - r_11 - b_11
  - r_12 - b_12 - r_13 - b_13 - r_14 - b_14 - r_15 - b_15 - r_16 - b_16 <= 9
 margin_8_0: 10.000000 c_8 - r_1 - b_1 - r_2 - b_2 - r_3 - b_3 - r_4 - b_4 - r_5 - b_5
  - r_6 - b_6 - r_7 - b_7 - r_8 - b_8 - r_9 - b_9 - r_10 - b_10 - r_11 - b_11 - r_12
  - b_12 - r_13 - b_13 - r_15 - b_15 - r_16 - b_16 <= 9
 margin_8_1: 10.000000 c_8 + r_0 + b_0 - r_1 - b_1 - r_2 - b_2 - r_3 - b_3 - r_4 - b_4
  - r_5 - b_5 - r_6 - b_6 - r_7 - b_7 - r_8 - b_8 - r_9 - b_9 - r_10 - b_10 - r_11 - b_11
  - r_12 - b_12 - r_13 - b_13 + r_14 + b_14 - r_15 - b_15 - r_16 - b_16 <= 9
 margin_9_0: 10.000000 c_9 - r_0 - b_0 - r_1 - b_1 - r_2 - b_2 - r_3 - b_3 - r_4 - b_4
  - r_5 - b_5 - r_6 - b_6 - r_8 - b_8 - r_9 - b_9 - r_10 - b_10 - r_11 - b_11 - r_12
  - b_12 - r_13 - b_13 - r_14 - b_14 - r_15 - b_15 - r_16 - b_16 <= 9
 margin_9_1: 10.000000 c_9 - r_0 - b_0 - r_1 - b_1 - r_2 - b_2 - r_3 - b_3 - r_4 - b_4
  - r_5 - b_5 - r_6 - b_6 + r_7 + b_7 - r_8 - b_8 - r_9 - b_9 - r_10 - b_10 - r_11 - b_11
  - r_12 - b_12 - r_13 - b_13 - r_14 - b_14 - r_15 - b_15 - r_16 - b_16 <= 9
 margin_10_0: 10.000000 c_10 - r_0 - b_0 - r_1 - b_1 - r_2 - b_2 - r_3 - b_3 - r_4 - b_4
  - r_5 - b_5 - r_6 - b_6 - r_7 - b_7 - r_8 - b_8 - r_9 - b_9 - r_10 - b_10 - r_11 - b_11
  - r_12 - b_12 - r_13 - b_13 - r_14 - b_14 - r_15 - b_15 - r_16 - b_16 <= 9
 margin_10_1: 10.000000 c_10 - r_0 - b_0 - r_1 - b_1 - r_2 - b_2 - r_3 - b_3 - r_4 - b_4
  - r_5 - b_5 - r_6 - b_6 - r_7 - b_7 - r_8 - b_8 - r_9 - b_9 - r_10 - b_10 - r_11 - b_11
  - r_12 - b_12 - r_13 - b_13 - r_14 - b_14 - r_15 - b_15 - r_16 - b_16 <= 9
 margin_11_0: 10.000000 c_11 - r_0 - b_0 - r_1 - b_1 - r_2 - b_2 - r_3 - b_3 - r_4 - b_4
  - r_5 - b_5 - r_6 - b_6 - r_7 - b_7 - r_8 - b_8 - r_9 - b_9 - r_10 - b_10 - r_11 - b_11
  - r_12 - b_12 - r_13 - b_13 - r_14 - b_14 - r_15 - b_15 - r_16 - b_16 <= 9
 margin_11_1: 10.000000 c_11 - r_0 - b_0 - r_1 - b_1 - r_2 - b_2 - r_3 - b_3 - r_4 - b_4
  - r_5 - b_5 - r_6 - b_6 - r_7 - b_7 - r_8 - b_8 - r_9 - b_9 - r_10 - b_10 - r_11 - b_11
  - r_12 - b_12 - r_13 - b_13 - r_14 - b_14 - r_15 - b_15 - r_16 - b_16 <= 9
 margin_12_0: 10.000000 c_12 - r_0 - b_0 - r_2 - b_2 - r_3 - b_3 - r_4 - b_4 - r_5 - b_5
  - r_6 - b_6 - r_7 - b_7 - r_8 - b_8 - r_9 - b_9 - r_10 - b_10 - r_11 - b_11 - r_13
  - b_13 - r_14 - b_14 - r_15 - b_15 - r_16 - b_16 <= 9
 margin_12_1: 10.000000 c_12 - r_0 - b_0 + r_1 + b_1 - r_2 - b_2 - r_3 - b_3 - r_4 - b_4
  - r_5 - b_5 - r_6 - b_6 - r_7 - b_7 - r_8 - b_8 - r_9 - b_9 - r_10 - b_10 - r_11 - b_11
  + r_12 + b_12 - r_13 - b_13 - r_14 - b_14 - r_15 - b_15 - r_16 - b_16 <= 9
 margin_13_0: 10.000000 c_13 - r_0 - b_0 - r_1 - b_1 - r_2 - b_2 - r_3 - b_3 - r_4 - b_4
  - r_5 - b_5 - r_6 - b_6 - r_7 - b_7 - r_8 - b_8 - r_9 - b_9 - r_10 - b_10 - r_11 - b_11
  - r_12 - b_12 - r_13 - b_13 - r_14 - b_14 - r_15 - b_15 - r_16 - b_16 <= 9
 margin_13_1: 10.000000 c_13 - r_0 - b_0 - r_1 - b_1 - r_2 - b_2 - r_3 - b_3 - r_4 - b_4
  - r_5 - b_5 - r_6 - b_6 - r_7 - b_7 - r_8 - b_8 - r_9 - b_9 - r_10 - b_10 - r_11 - b_11
  - r_12 - b_12 - r_13 - b_13 - r_14 - b_14 - r_15 - b_15 - r_16 - b_16 <= 9
 margin_14_0: 10.000000 c_14 - r_0 - b_0 - r_1 - b_1 - r_2 - b_2 - r_3 - b_3 - r_4 - b_4
  - r_5 - b_5 - r_6 - b_6 - r_7 - b_7 - r_8 - b_8 - r_9 - b_9 - r_10 - b_10 - r_11 - b_11
  - r_12 - b_12 - r_13 - b_13 - r_14 - b_14 - r_15 - b_15 - r_16 - b_16 <= 9
 margin_14_1: 10.000000 c_14 - r_0 - b_0 - r_1 - b_1 - r_2 - b_2 - r_3 - b_3 - r_4 - b_4
  - r_5 - b_5 - r_6 - b_6 - r_7 - b_7 - r_8 - b_8 - r_9 - b_9 - r_10 - b_10 - r_11 - b_11
  - r_12 - b_12 - r_13 - b_13 - r_14 - b_14 - r_15 - b_15 - r_16 - b_16 <= 9
 margin_15_0: 10.000000 c_15 - r_0 - b_0 - r_1 - b_1 - r_2 - b_2 - r_3 - b_3 - r_4 - b_4
  - r_5 - b_5 - r_6 - b_6 - r_7 - b_7 - r_8 - b_8 - r_9 - b_9 - r_10 - b_10 - r_11 - b_11
  - r_12 - b_12 - r_13 - b_13 - r_14 - b_14 - r_15 - b_15 - r_16 - b_16 <= 9
 margin_15_1: 10.000000 c_15 - r_0 - b_0 - r_1 - b_1 - r_2 - b_2 - r_3 - b_3 - r_4 - b_4
  - r_5 - b_5 - r_6 - b_6 - r_7 - b_7 - r_8 - b_8 - r_9 - b_9 - r_10 - b_10 - r_11 - b_11
  - r_12 - b_12 - r_13 - b_13 - r_14 - b_14 - r_15 - b_15 - r_16 - b_16 <= 9
 margin_16_0: 10.000000 c_16 - r_2 - b_2 - r_3 - b_3 - r_7 - b_7 - r_12 - b_12 - r_14
  - b_14 <= 9
 margin_16_1: 10.000000 c_16 + r_0 + b_0 + r_1 + b_1 - r_2 - b_2 - r_3 - b_3 + r_4 + b_4
  + r_5 + b_5 + r_6 + b_6 - r_7 - b_7 + r_8 + b_8 + r_9 + b_9 + r_10 + b_10 + r_11 + b_11
  - r_12 - b_12 + r_13 + b_13 - r_14 - b_14 + r_15 + b_15 + r_16 + b_16 <= 9
 margin_17_0: 10.000000 c_17 - r_0 - b_0 - r_1 - b_1 - r_4 - b_4 - r_5 - b_5 - r_6 - b_6
  - r_8 - b_8 - r_9 - b_9 - r_10 - b_10 - r_11 - b_11 - r_13 - b_13 - r_15 - b_15 - r_16
  - b_16 <= 9
 margin_17_1: 10.000000 c_17 - r_0 - b_0 - r_1 - b_1 + r_2 + b_2 + r_3 + b_3 - r_4 - b_4
  - r_5 - b_5 - r_6 - b_6 + r_7 + b_7 - r_8 - b_8 - r_9 - b_9 - r_10 - b_10 - r_11 - b_11
  + r_12 + b_12 - r_13 - b_13 + r_14 + b_14 - r_15 - b_15 - r_16 - b_16 <= 9
 margin_18_0: 10.000000 c_18 - r_0 - b_0 - r_1 - b_1 - r_2 - b_2 - r_3 - b_3 - r_4 - b_4
  - r_5 - b_5 - r_6 - b_6 - r_7 - b_7 - r_8 - b_8 - r_9 - b_9 - r_10 - b_10 - r_11 - b_11
  - r_12 - b_12 - r_13 - b_13 - r_14 - b_14 - r_15 - b_15 - r_16 - b_16 <= 9
 margin_18_1: 10.000000 c_18 - r_0 - b_0 - r_1 - b_1 - r_2 - b_2 - r_3 - b_3 - r_4 - b_4
  - r_5 - b_5 - r_6 - b_6 - r_7 - b_7 - r_8 - b_8 - r_9 - b_9 - r_10 - b_10 - r_11 - b_11
  - r_12 - b_12 - r_13 - b_13 - r_14 - b_14 - r_15 - b_15 - r_16 - b_16 <= 9
 margin_19_0: 10.000000 c_19 - r_0 - b_0 - r_1 - b_1 - r_2 - b_2 - r_3 - b_3 - r_4 - b_4
  - r_5 - b_5 - r_6 - b_6 - r_7 - b_7 - r_8 - b_8 - r_9 - b_9 - r_10 - b_10 - r_11 - b_11
  - r_12 - b_12 - r_13 - b_13 - r_14 - b_14 - r_15 - b_15 - r_16 - b_16 <= 9
 margin_19_1: 10.000000 c_19 - r_0 - b_0 - r_1 - b_1 - r_2 - b_2 - r_3 - b_3 - r_4 - b_4
  - r_5 - b_5 - r_6 - b_6 - r_7 - b_7 - r_8 - b_8 - r_9 - b_9 - r_10 - b_10 - r_11 - b_11
  - r_12 - b_12 - r_13 - b_13 - r_14 - b_14 - r_15 - b_15 - r_16 - b_16 <= 9
 margin_20_0: 10.000000 c_20 - r_0 - b_0 - r_1 - b_1 - r_2 - b_2 - r_3 - b_3 - r_4 - b_4
  - r_5 - b_5 - r_6 - b_6 - r_7 - b_7 - r_8 - b_8 - r_9 - b_9 - r_10 - b_10 - r_11 - b_11
  - r_12 - b_12 - r_13 - b_13 - r_14 - b_14 - r_15 - b_15 - r_16 - b_16 <= 9
 margin_20_1: 10.000000 c_20 - r_0 - b_0 - r_1 - b_1 - r_2 - b_2 - r_3 - b_3 - r_4 - b_4
  - r_5 - b_5 - r_6 - b_6 - r_7 - b_7 - r_8 - b_8 - r_9 - b_9 - r_10 - b_10 - r_11 - b_11
  - r_12 - b_12 - r_13 - b_13 - r_14 - b_14 - r_15 - b_15 - r_16 - b_16 <= 9
 margin_21_0: 10.000000 c_21 - r_0 - b_0 - r_1 - b_1 - r_2 - b_2 - r_3 - b_3 - r_4 - b_4
  - r_5 - b_5 - r_6 - b_6 - r_7 - b_7 - r_8 - b_8 - r_9 - b_9 - r_10 - b_10 - r_11 - b_11
  - r_12 - b_12 - r_13 - b_13 - r_14 - b_14 - r_15 - b_15 - r_16 - b_16 <= 9
 margin_21_1: 10.000000 c_21 - r_0 - b_0 - r_1 - b_1 - r_2 - b_2 - r_3 - b_3 - r_4 - b_4
  - r_5 - b_5 - r_6 - b_6 - r_7 - b_7 - r_8 - b_8 - r_9 - b_9 - r_10 - b_10 - r_11 - b_11
  - r_12 - b_12 - r_13 - b_13 - r_14 - b_14 - r_15 - b_15 - r_16 - b_16 <= 9
 margin_22_0: 10.000000 c_22 - r_0 - b_0 - r_1 - b_1 - r_2 - b_2 - r_3 - b_3 - r_4 - b_4
  - r_5 - b_5 - r_6 - b_6 - r_7 - b_7 - r_8 - b_8 - r_9 - b_9 - r_10 - b_10 - r_11 - b_11
  - r_12 - b_12 - r_13 - b_13 - r_14 - b_14 - r_15 - b_15 - r_16 - b_16 <= 9
 margin_22_1: 10.000000 c_22 - r_0 - b_0 - r_1 - b_1 - r_2 - b_2 - r_3 - b_3 - r_4 - b_4
  - r_5 - b_5 - r_6 - b_6 - r_7 - b_7 - r_8 - b_8 - r_9 - b_9 - r_10 - b_10 - r_11 - b_11
  - r_12 - b_12 - r_13 - b_13 - r_14 - b_14 - r_15 - b_15 - r_16 - b_16 <= 9
 margin_23_0: 10.000000 c_23 - r_0 - b_0 - r_1 - b_1 - r_2 - b_2 - r_4 - b_4 - r_5 - b_5
  - r_6 - b_6 - r_8 - b_8 - r_9 - b_9 - r_10 - b_10 - r_11 - b_11 - r_12 - b_12 - r_13
  - b_13 - r_15 - b_15 - r_16 - b_16 <= 9
 margin_23_1: 10.000000 c_23 - r_0 - b_0 - r_1 - b_1 - r_2 - b_2 + r_3 + b_3 - r_4 - b_4
  - r_5 - b_5 - r_6 - b_6 + r_7 + b_7 - r_8 - b_8 - r_9 - b_9 - r_10 - b_10 - r_11 - b_11
  - r_12 - b_12 - r_13 - b_13 + r_14 + b_14 - r_15 - b_15 - r_16 - b_16 <= 9
 margin_24_0: 10.000000 c_24 - r_7 - b_7 - r_14 - b_14 <= 9
 margin_24_1: 10.000000 c_24 + r_0 + b_0 + r_1 + b_1 + r_2 + b_2 + r_3 + b_3 + r_4 + b_4
  + r_5 + b_5 + r_6 + b_6 - r_7 - b_7 + r_8 + b_8 + r_9 + b_9 + r_10 + b_10 + r_11 + b_11
  + r_12 + b_12 + r_13 + b_13 - r_14 - b_14 + r_15 + b_15 + r_16 + b_16 <= 9
 margin_25_0: 10.000000 c_25 - r_0 - b_0 - r_1 - b_1 - r_2 - b_2 - r_3 - b_3 - r_4 - b_4
  - r_5 - b_5 - r_6 - b_6 - r_7 - b_7 - r_8 - b_8 - r_9 - b_9 - r_10 - b_10 - r_11 - b_11
  - r_12 - b_12 - r_13 - b_13 - r_14 - b_14 - r_15 - b_15 - r_16 - b_16 <= 9
 margin_25_1: 10.000000 c_25 - r_0 - b_0 - r_1 - b_1 - r_2 - b_2 - r_3 - b_3 - r_4 - b_4
  - r_5 - b_5 - r_6 - b_6 - r_7 - b_7 - r_8 - b_8 - r_9 - b_9 - r_10 - b_10 - r_11 - b_11
  - r_12 - b_12 - r_13 - b_13 - r_14 - b_14 - r_15 - b_15 - r_16 - b_16 <= 9
 margin_26_0: 10.000000 c_26 - r_0 - b_0 - r_1 - b_1 - r_2 - b_2 - r_3 - b_3 - r_4 - b_4
  - r_5 - b_5 - r_6 - b_6 - r_7 - b_7 - r_8 - b_8 - r_9 - b_9 - r_10 - b_10 - r_11 - b_11
  - r_12 - b_12 - r_13 - b_13 - r_14 - b_14 - r_15 - b_15 - r_16 - b_16 <= 9
 margin_26_1: 10.000000 c_26 - r_0 - b_0 - r_1 - b_1 - r_2 - b_2 - r_3 - b_3 - r_4 - b_4
  - r_5 - b_5 - r_6 - b_6 - r_7 - b_7 - r_8 - b_8 - r_9 - b_9 - r_10 - b_10 - r_11 - b_11
  - r_12 - b_12 - r_13 - b_13 - r_14 - b_14 - r_15 - b_15 - r_16 - b_16 <= 9
 margin_27_0: 10.000000 c_27 - r_0 - b_0 - r_1 - b_1 - r_2 - b_2 - r_3 - b_3 - r_4 - b_4
  - r_5 - b_5 - r_6 - b_6 - r_7 - b_7 - r_8 - b_8 - r_9 - b_9 - r_10 - b_10 - r_11 - b_11
  - r_12 - b_12 - r_13 - b_13 - r_14 - b_14 - r_15 - b_15 - r_16 - b_16 <= 9
 margin_27_1: 10.000000 c_27 - r_0 - b_0 - r_1 - b_1 - r_2 - b_2 - r_3 - b_3 - r_4 - b_4
  - r_5 - b_5 - r_6 - b_6 - r_7 - b_7 - r_8 - b_8 - r_9 - b_9 - r_10 - b_10 - r_11 - b_11
  - r_12 - b_12 - r_13 - b_13 - r_14 - b_14 - r_15 - b_15 - r_16 - b_16 <= 9
 margin_28_0: 10.000000 c_28 - r_0 - b_0 - r_1 - b_1 - r_2 - b_2 - r_3 - b_3 - r_4 - b_4
  - r_5 - b_5 - r_6 - b_6 - r_7 - b_7 - r_8 - b_8 - r_9 - b_9 - r_10 - b_10 - r_11 - b_11
  - r_12 - b_12 - r_13 - b_13 - r_14 - b_14 - r_15 - b_15 - r_16 - b_16 <= 9
 margin_28_1: 10.000000 c_28 - r_0 - b_0 - r_1 - b_1 - r_2 - b_2 - r_3 - b_3 - r_4 - b_4
  - r_5 - b_5 - r_6 - b_6 - r_7 - b_7 - r_8 - b_8 - r_9 - b_9 - r_10 - b_10 - r_11 - b_11
  - r_12 - b_12 - r_13 - b_13 - r_14 - b_14 - r_15 - b_15 - r_16 - b_16 <= 9
 margin_29_0: 10.000000 c_29 - r_0 - b_0 - r_1 - b_1 - r_2 - b_2 - r_3 - b_3 - r_4 - b_4
  - r_5 - b_5 - r_6 - b_6 - r_7 - b_7 - r_8 - b_8 - r_9 - b_9 - r_10 - b_10 - r_11 - b_11
  - r_12 - b_12 - r_13 - b_13 - r_14 - b_14 - r_15 - b_15 - r_16 - b_16 <= 9
 margin_29_1: 10.000000 c_29 - r_0 - b_0 - r_1 - b_1 - r_2 - b_2 - r_3 - b_3 - r_4 - b_4
  - r_5 - b_5 - r_6 - b_6 - r_7 - b_7 - r_8 - b_8 - r_9 - b_9 - r_10 - b_10 - r_11 - b_11
  - r_12 - b_12 - r_13 - b_13 - r_14 - b_14 - r_15 - b_15 - r_16 - b_16 <= 9
Binary
 r_0
 r_1
 r_2
 r_3
 r_4
 r_5
 r_6
 r_7
 r_8
 r_9
 r_10
 r_11
 r_12
 r_13
 r_14
 r_15
 r_16
 b_0
 b_1
 b_2
 b_3
 b_4
 b_5
 b_6
 b_7
 b_8
 b_9
 b_10
 b_11
 b_12
 b_13
 b_14
 b_15
 b_16
 c_0
 c_1
 c_2
 c_3
 c_4
 c_5
 c_6
 c_7
 c_8
 c_9
 c_10
 c_11
 c_12
 c_13
 c_14
 c_15
 c_16
 c_17
 c_18
 c_19
 c_20
 c_21
 c_22
 c_23
 c_24
 c_25
 c_26
 c_27
 c_28
 c_29
End
