computational_data/real_data/logs/iris_trial_002_margin.log
Welcome to the CBC MILP Solver 
Version: 2.10.12 
Build Date: Aug 20 2024 

command line - /opt/homebrew/bin/cbc computational_data/real_data/lp/iris_trial_002_margin.lp seconds 10.0 solve solu computational_data/real_data/solutions/iris_trial_002_margin.sol (default strategy 1)
 CoinLpIO::readLp(): Maximization problem reformulated as minimization
Coin0009I Switching back to maximization to get correct duals etc
seconds was changed from 1e+100 to 10
Continuous objective value is 29.2082 - 0.00 seconds
Cgl0003I 0 fixed, 0 tightened bounds, 85 strengthened rows, 0 substitutions
Cgl0003I 0 fixed, 0 tightened bounds, 74 strengthened rows, 0 substitutions
Cgl0003I 0 fixed, 0 tightened bounds, 68 strengthened rows, 0 substitutions
Cgl0003I 0 fixed, 0 tightened bounds, 61 strengthened rows, 0 substitutions
Cgl0003I 0 fixed, 0 tightened bounds, 60 strengthened rows, 0 substitutions
Cgl0003I 0 fixed, 0 tightened bounds, 54 strengthened rows, 0 substitutions
Cgl0003I 0 fixed, 0 tightened bounds, 29 strengthened rows, 0 substitutions
Cgl0003I 0 fixed, 0 tightened bounds, 18 strengthened rows, 0 substitutions
Cgl0003I 0 fixed, 0 tightened bounds, 14 strengthened rows, 0 substitutions
Cgl0004I processed model has 76 rows, 23 columns (23 integer (22 of which binary)) and 688 elements
Cbc0038I Initial state - 1 integers unsatisfied sum - 0.5
Cbc0038I Solution found of 28.0082
Cbc0038I Cleaned solution of 28.0082
Cbc0038I Before mini branch and bound, 22 integers at bound fixed and 0 continuous
Cbc0038I Full problem 76 rows 23 columns, reduced to 0 rows 0 columns
Cbc0038I Mini branch and bound did not improve solution (0.01 seconds)
Cbc0038I Round again with cutoff of 28.0582
Cbc0038I Pass   1: suminf.    0.05001 (1) obj. 28.0582 iterations 4
Cbc0038I Pass   2: suminf.    0.50000 (1) obj. 28.5082 iterations 1
Cbc0038I Pass   3: suminf.    0.05001 (1) obj. 28.0582 iterations 4
Cbc0038I Pass   4: suminf.    0.05001 (1) obj. 28.0582 iterations 1
Cbc0038I Pass   5: suminf.    0.50000 (1) obj. 28.5082 iterations 1
Cbc0038I Pass   6: suminf.    0.94999 (2) obj. 28.0582 iterations 2
Cbc0038I Pass   7: suminf.    0.05001 (1) obj. 28.0582 iterations 2
Cbc0038I Pass   8: suminf.    0.05001 (1) obj. 28.0582 iterations 5
Cbc0038I Pass   9: suminf.    0.94999 (2) obj. 28.0582 iterations 9
Cbc0038I Pass  10: suminf.    0.05001 (1) obj. 28.0582 iterations 5
Cbc0038I Pass  11: suminf.    0.50000 (1) obj. 28.5082 iterations 1
Cbc0038I Pass  12: suminf.    0.50000 (1) obj. 28.5082 iterations 2
Cbc0038I Pass  13: suminf.    0.50000 (1) obj. 28.5082 iterations 4
Cbc0038I Pass  14: suminf.    0.94999 (2) obj. 28.0582 iterations 7
Cbc0038I Pass  15: suminf.    0.94999 (2) obj. 28.0582 iterations 5
Cbc0038I Pass  16: suminf.    0.94999 (2) obj. 28.0582 iterations 7
Cbc0038I Pass  17: suminf.    0.05001 (1) obj. 28.0582 iterations 4
Cbc0038I Pass  18: suminf.    0.50000 (1) obj. 28.5082 iterations 1
Cbc0038I Pass  19: suminf.    0.50000 (1) obj. 28.5082 iterations 7
Cbc0038I Pass  20: suminf.    0.05001 (1) obj. 28.0582 iterations 4
Cbc0038I Pass  21: suminf.    0.50000 (1) obj. 28.5082 iterations 1
Cbc0038I Pass  22: suminf.    0.50000 (1) obj. 28.5082 iterations 2
Cbc0038I Pass  23: suminf.    0.05001 (1) obj. 28.0582 iterations 1
Cbc0038I Pass  24: suminf.    0.50000 (1) obj. 28.5082 iterations 1
Cbc0038I Pass  25: suminf.    0.50000 (1) obj. 28.5082 iterations 10
Cbc0038I Pass  26: suminf.    0.05001 (1) obj. 28.0582 iterations 3
Cbc0038I Pass  27: suminf.    0.50000 (1) obj. 28.5082 iterations 1
Cbc0038I Pass  28: suminf.    0.05001 (1) obj. 28.0582 iterations 11
Cbc0038I Pass  29: suminf.    0.05001 (1) obj. 28.0582 iterations 2
Cbc0038I Pass  30: suminf.    0.50000 (1) obj. 28.5082 iterations 1
Cbc0038I No solution found this major pass
Cbc0038I Before mini branch and bound, 13 integers at bound fixed and 0 continuous
Cbc0038I Full problem 76 rows 23 columns, reduced to 20 rows 10 columns
Cbc0038I Mini branch and bound did not improve solution (0.01 seconds)
Cbc0038I After 0.01 seconds - Feasibility pump exiting with objective of 28.0082 - took 0.00 seconds
Cbc0012I Integer solution of 28.008199 found by feasibility pump after 0 iterations and 0 nodes (0.01 seconds)
Cbc0031I 1 added rows had average density of 21
Cbc0013I At root node, 3 cuts changed objective from 28.508199 to 28.008199 in 1 passes
Cbc0014I Cut generator 0 (Probing) - 0 row cuts average 0.0 elements, 0 column cuts (0 active)  in 0.000 seconds - new frequency is -100
Cbc0014I Cut generator 1 (Gomory) - 1 row cuts average 21.0 elements, 0 column cuts (0 active)  in 0.000 seconds - new frequency is 1
Cbc0014I Cut generator 2 (Knapsack) - 1 row cuts average 18.0 elements, 0 column cuts (0 active)  in 0.000 seconds - new frequency is 1
Cbc0014I Cut generator 3 (Clique) - 0 row cuts average 0.0 elements, 0 column cuts (0 active)  in 0.000 seconds - new frequency is -100
Cbc0014I Cut generator 4 (MixedIntegerRounding2) - 0 row cuts average 0.0 elements, 0 column cuts (0 active)  in 0.000 seconds - new frequency is -100
Cbc0014I Cut generator 5 (FlowCover) - 0 row cuts average 0.0 elements, 0 column cuts (0 active)  in 0.000 seconds - new frequency is -100
Cbc0014I Cut generator 6 (TwoMirCuts) - 1 row cuts average 21.0 elements, 0 column cuts (0 active)  in 0.000 seconds - new frequency is -100
Cbc0001I Search completed - best objective 28.008199, took 0 iterations and 0 nodes (0.01 seconds)
Cbc0035I Maximum depth 0, 0 variables fixed on reduced cost
Cuts at root node changed objective from 28.5082 to 28.0082
Probing was tried 1 times and created 0 cuts of which 0 were active after adding rounds of cuts (0.000 seconds)
Gomory was tried 1 times and created 1 cuts of which 0 were active after adding rounds of cuts (0.000 seconds)
Knapsack was tried 1 times and created 1 cuts of which 0 were active after adding rounds of cuts (0.000 seconds)
Clique was tried 1 times and created 0 cuts of which 0 were active after adding rounds of cuts (0.000 seconds)
MixedIntegerRounding2 was tried 1 times and created 0 cuts of which 0 were active after adding rounds of cuts (0.000 seconds)
FlowCover was tried 1 times and created 0 cuts of which 0 were active after adding rounds of cuts (0.000 seconds)
TwoMirCuts was tried 1 times and created 1 cuts of which 0 were active after adding rounds of cuts (0.000 seconds)
ZeroHalf was tried 1 times and created 0 cuts of which 0 were active after adding rounds of cuts (0.000 seconds)

Result - Optimal solution found

Objective value:                28.00819900
Enumerated nodes:               0
Total iterations:               0
Time (CPU seconds):             0.01
Time (Wallclock seconds):       0.01

Total time (CPU seconds):       0.01   (Wallclock seconds):       0.01

